CMD:
./solvers/bin/cadical --plain --no-reduce -t 1600 ./data/cnfs//6s109/6s109.33.cnf

c --- [ banner ] -------------------------------------------------------------
c 
c CaDiCaL SAT Solver
c Copyright (c) 2016-2024
c A. Biere, M. Fleury, N. Froleyks, K. Fazekas, F. Pollitt, T. Faller
c JKU Linz, University of Freiburg, TU Wien
c 
c Version 2.1.3 5296d3d2a9bf48c154ab2acb5e44625776d821bf
c g++ (Gentoo 12.3.1_p20230526 p2) 12.3.1 20230526 -Wall -Wextra -O3 -DNDEBUG
c Sat Aug 9 07:26:21 PDT 2025 Linux cedar2.int.cedar.computecanada.ca 5.14.0-362.24.2.el9_3.x86_64 x86_64
c 
c --- [ limit ] --------------------------------------------------------------
c 
c setting time limit to 1600 seconds real time (due to '-t 1600')
c 
c --- [ parsing input ] ------------------------------------------------------
c 
c reading DIMACS file from './data/cnfs//6s109/6s109.33.cnf'
c opening file to read './data/cnfs//6s109/6s109.33.cnf'
c found 'p cnf 309670 927314' header
c parsed 927314 clauses in 0.14 seconds process time
c 
c --- [ options ] ------------------------------------------------------------
c 
c   --compact=false                (different from default 'true')
c   --decompose=false              (different from default 'true')
c   --deduplicate=false            (different from default 'true')
c   --elim=false                   (different from default 'true')
c   --probe=false                  (different from default 'true')
c   --reduce=false                 (different from default 'true')
c   --subsume=false                (different from default 'true')
c   --ternary=false                (different from default 'true')
c   --transred=false               (different from default 'true')
c   --vivify=false                 (different from default 'true')
c 
c --- [ solving ] ------------------------------------------------------------
c 
c time measured in process time since initialization
c 
c  seconds   reductions  redundant  irredundant
c          MB    restarts       trail       variables
c           level   conflicts       glue          remaining
c 
c *  0.14 145  0 0   0    0    0  0% 0 900562 292005 94%
c {  0.20 148  0 0   0    0    0  0% 0 900562 292005 94%
c i  0.63 152 317 0  50  732  706 45% 2 900562 291997 94%
c i  0.75 152 294 0  66  839  800 43% 2 900562 291984 94%
c }  0.95 153 274 0  96 1000  952 40% 3 900562 291984 94%
c [  0.95 153  0 0  96 1000  952  0% 0 900562 291984 94%
c O  0.99 153 601 0  96 1004  956 44% 2 900562 291984 94%
c i  1.15 153 62 0  96 1330 1229 18% 3 900562 291975 94%
c i  1.76 153 68 0  97 2097 1942 19% 6 900562 291383 94%
c ]  2.40 153 198 0  97 3001 2689 44% 9 900562 291383 94%
c {  2.40 153 274 0  97 3001 2689 40% 3 900562 291383 94%
c F  2.41 153 275 0  99 3007 2693 39% 3 900562 291383 94%
c i  3.23 154 196 0 241 3842 3434 32% 3 900562 291382 94%
c i  3.77 154 172 0 315 4322 3867 31% 3 900562 291373 94%
c i  4.72 154 149 0 422 5085 4548 30% 4 900562 291371 94%
c i  5.17 154 140 0 486 5561 4960 30% 4 900562 291363 94%
c #  5.85 154 136 0 573 6008 5362 30% 4 900562 291363 94%
c i  5.96 154 135 0 579 6116 5460 30% 4 900562 291353 94%
c }  6.73 154 128 0 665 7002 6215 30% 4 900562 291352 94%
c [  6.73 154 198 0 665 7002 6215 44% 9 900562 291352 94%
c 
c  seconds    reductions  redundant  irredundant
c          MB     restarts       trail       variables
c            level   conflicts       glue          remaining
c 
c i  6.94 155 178 0 666 7488 6656 40% 8 900562 291342 94%
c i  7.31 155 170 0 666 8295 7364 37% 8 900562 291332 94%
c i  7.31 155 170 0 666 8298 7366 37% 8 900562 291322 94%
c i  7.31 155 170 0 666 8301 7368 37% 7 900562 291312 94%
c i  7.31 155 170 0 666 8304 7370 37% 7 900562 291300 94%
c I  8.62 155 169 0 667 10011 8849 39% 8 900562 291300 94%
c ] 12.69 158 227 0 670 15003 13122 44% 11 900562 291300 94%
c { 12.69 158 128 0 670 15003 13122 30% 4 900562 291300 94%
c B 12.71 158 130 0 671 15021 13136 30% 4 900562 291300 94%
c i 13.42 158 133 0 739 16267 14214 31% 4 900562 291299 94%
c i 13.42 158 132 0 739 16270 14216 31% 4 900562 291298 94%
c i 14.81 159 127 0 897 17248 15073 31% 5 900562 291287 94%
c i 14.82 159 127 0 898 17257 15079 31% 5 900562 291277 94%
c i 15.12 159 129 0 920 17606 15350 31% 5 900562 291178 94%
c i 15.82 159 127 0 985 18214 15890 32% 5 900562 290693 94%
c i 16.42 159 123 0 1066 18788 16374 32% 5 900562 290201 94%
c W 19.09 161 120 0 1273 21023 18190 32% 5 862417 290201 94%
c i 19.56 161 118 0 1301 21503 18622 31% 5 862417 289678 94%
c i 20.33 161 116 0 1366 22102 19144 31% 5 862417 289676 94%
c i 20.87 161 114 0 1418 22656 19623 31% 5 862417 289669 94%
c 
c  seconds    reductions     redundant  irredundant
c          MB     restarts          trail       variables
c            level     conflicts        glue          remaining
c 
c i 25.38 161 107 0 1820 27130 23525 31% 5 862417 289668 94%
c F 26.61 161 108 0 1938 28024 24326 31% 5 862417 289668 94%
c i 26.95 161 109 0 1962 28400 24659 32% 5 862417 289667 94%
c } 29.17 161 110 0 2155 31008 26908 32% 5 862417 289667 94%
... skipped 30 lines ...
c B 211.45 224 236 0 7850 190054 167952 40% 26 857726 288987 93%
c W 245.06 242 237 0 7857 210059 186531 41% 35 857726 288987 93%
c O 287.33 256 207 0 7868 231062 204958 42% 39 857726 288987 93%
c B 308.85 266 168 0 7869 253066 224441 38% 35 857726 288987 93%
c ] 311.61 269 170 0 7869 255012 226279 38% 35 857726 288987 93%
c { 311.61 269 86 0 7869 255012 226279 29% 7 857726 288987 93%
c F 343.57 283 86 0 10036 276067 244900 29% 7 857726 288987 93%
c i 349.89 285 85 0 10456 280053 248468 29% 7 857726 288980 93%
c i 352.44 285 84 0 10571 282089 250269 28% 7 857726 288973 93%
c B 379.14 291 84 0 12129 300069 266418 28% 8 857726 288973 93%
c W 417.59 384 82 0 14157 325072 288505 28% 8 857688 288973 93%
c 
c  seconds    reductions       redundant   irredundant
c           MB     restarts            trail       variables
c            level      conflicts          glue          remaining
c 
c i 420.98 384 82 0 14296 327335 290491 28% 8 857688 288964 93%
c # 457.68 384 80 0 16312 351073 311682 28% 8 857688 288964 93%
c i 493.85 384 80 0 18189 374756 332935 27% 9 857688 288963 93%
c B 499.64 384 79 0 18587 378077 335887 27% 9 857688 288963 93%
c W 539.31 401 77 0 20282 406081 360905 27% 9 857661 288963 93%
c F 585.74 401 74 0 22537 435082 386830 27% 9 857661 288963 93%
c i 624.93 401 71 0 24293 458356 407744 26% 9 857661 288962 93%
c B 637.05 401 71 0 24794 465084 413768 26% 9 857661 288962 93%
c W 692.62 422 71 0 27454 496085 441791 26% 10 857658 288962 93%
c } 720.39 422 72 0 28645 511012 455278 27% 10 857658 288962 93%
c [ 720.39 422 170 0 28645 511012 455278 38% 35 857658 288962 93%
c W 746.14 422 161 0 28646 528087 471331 39% 38 857658 288962 93%
c I 801.83 424 149 0 28655 561090 501025 39% 47 857658 288962 93%
c B 861.64 424 143 0 28670 595093 530932 39% 48 857658 288962 93%
c W 921.90 446 125 0 28677 630094 561466 37% 46 857658 288962 93%
c O 982.07 468 111 0 28692 666096 591627 36% 45 857658 288962 93%
c B 1044.53 493 103 0 28708 703100 623918 35% 42 857658 288962 93%
c W 1122.33 528 93 0 28709 741103 657858 36% 39 857658 288962 93%
c I 1197.44 576 92 0 28710 780104 694286 38% 44 857658 288962 93%
c B 1275.78 623 90 0 28712 820105 730689 39% 44 857658 288962 93%
c 
c   seconds    reductions       redundant    irredundant
c            MB     restarts            trail        variables
c             level      conflicts          glue           remaining
c 
c W 1338.38 653 84 0 28732 861107 766127 38% 45 857658 288962 93%
c O 1409.62 682 76 0 28742 903111 802104 38% 45 857658 288962 93%
c B 1508.43 718 79 0 28763 946112 840360 38% 42 857658 288962 93%
c ] 1594.01 745 71 0 28772 985929 873495 36% 39 857658 288962 93%
c ? 1594.01 745 71 0 28772 985929 873495 36% 39 857658 288962 93%
c 
c --- [ result ] -------------------------------------------------------------
c 
c UNKNOWN
c 
c --- [ run-time profiling ] -------------------------------------------------
c 
c process time taken by individual solving procedures
c (percentage relative to process time for solving)
c 
c      1593.87  100.00% search
c      1090.93   68.45% stable
c       499.04   31.31% unstable
c         3.84    0.24% walk
c         0.14    0.01% parse
c         0.06    0.00% lucky
c         0.00    0.00% simplify
c   =================================
c      1593.87   99.99% solve
c 
c last line shows process time for solving
c (percentage relative to total process time)
c 
c --- [ statistics ] ---------------------------------------------------------
c 
c chronological:            339405        34.42 %  of conflicts
c conflicts:                985929       618.58    per second
c decisions:               4747609      2978.67    per second
c fixed:                     20708         6.69 %  of all variables
c learned:                  940487        95.39 %  per conflict
c learned_lits:          259364737       100.00 %  learned literals
c minimized:                     0         0.00 %  learned literals
c shrunken:               75373765        29.06 %  learned literals
c minishrunken:           58623781        22.60 %  learned literals
c otfs:                       3049         0.31 %  of conflict
c propagations:        10171400080         6.38 M  per second
c rephased:                     43     22928.58    interval
c restarts:                  28772        34.27    interval
c stabilizing:                   5        65.41 %  of conflicts
c subsumed:                  65953         3.58 %  of all clauses
c strengthened:               2984         0.16 %  of all clauses
c walked:                       13     75840.69    interval
c 
c seconds are measured in process time for solving
c 
c --- [ resources ] ----------------------------------------------------------
c 
c total process time since initialization:      1594.01    seconds
c total real time since initialization:         1600.01    seconds
c maximum resident set size of process:          750.56    MB
c 
c --- [ shutting down ] ------------------------------------------------------
c 
c exit 0
